593,527
874,140
488,140
709,229
681,706
753,354
672,465
1028,583
778,476
311,526
491,780
740,415
740,397
639,672
745,605
624,388
644,520
792,748
425,489
597,322
721,326
871,216
786,261
672,434
729,441
515,-107
584,336
269,107
721,326
830,112
681,916
808,279
